c 46_3_checker_6cl.cnf
c
c field = 46
c formula set type = 3_checker_6cl
c
p cnf 6 10
30 
60 
120 
-151 
-0 
-180 
31 
61 
121 
-150 
-1 
-181 
60 
120 
150 
-31 
-0 
-180 
61 
121 
151 
-30 
-1 
-181 
60 
120 
150 
-181 
-30 
-210 
61 
121 
151 
-180 
-31 
-211 
120 
150 
180 
-61 
-30 
-210 
121 
151 
181 
-60 
-31 
-211 
120 
150 
180 
-211 
-60 
-240 
121 
151 
181 
-210 
-61 
-241 
